units real
atom_style full



region box block 0 31 0 31 0 31
create_box 2 box  bond/types 1 angle/types 1 &
                extra/bond/per/atom 2 extra/angle/per/atom 1 extra/special/per/atom 2




mass 1 15.9994
mass 2 1.008

# Set pair style before pair coefficients
pair_style lj/cut/coul/cut 10.0

# Set pair coefficients after pair style
pair_coeff 1 1 0.1553 3.166
pair_coeff 1 2 0.0    1.0
pair_coeff 2 2 0.0    1.0

bond_style zero
bond_coeff 1 1.0

angle_style zero
angle_coeff 1 109.47

molecule water spce.mol
create_atoms 0 random 1019 34564 NULL mol water 25367 overlap 1.33

timestep 1.0
fix rigid     all shake 0.0001 10 10000 b 1 a 1
minimize 0.0 0.0 1000 10000




# Set seed for velocity creation
velocity all create 300.0 ${seed_value}


#variable pressure_atm equal press/6.895

# Equilibration phase
fix npt_equilibration all npt temp 300.0 300.0 100.0 iso 1.0 1.0 100.0
thermo_style custom step temp press etotal density pe ke

#thermo_style custom step temp press etotal density pe ke
thermo 100

run 50000


# NVT equilibration
unfix npt_equilibration
fix nvt_equilibration all nvt temp 300.0 300.0 100.0
thermo_style custom step temp press etotal density pe ke
thermo 100

run 10000

# Save final equilibrated configuration
write_data equilibrated_configuration.data
